; benchmark generated from python API
(set-info :status unknown)
(declare-fun x_months () Int)
(declare-fun x_beta () Int)
(assert
 (<= (- 1202) x_months))
(assert
 (>= 1209 x_months))
(assert
 (>= x_beta 0))
(assert
 (let ((?x1314 (+ x_months 24003)))
 (let ((?x1171 (- ?x1314 (* (div (- ?x1314 1) 12) 12))))
 (let ((?x1101 (ite (or (= ?x1171 4) (= ?x1171 6) (= ?x1171 9) (= ?x1171 11)) 30 31)))
 (let (($x309 (and (= (mod (div (- ?x1314 1) 12) 4) 0) (and (distinct (mod (div (- ?x1314 1) 12) 100) 0) true))))
 (let ((?x1347 (ite (or $x309 (= (mod (div (- ?x1314 1) 12) 400) 0)) 29 28)))
 (< x_beta (ite (= ?x1171 2) ?x1347 ?x1101))))))))
(assert
 (let ((?x1416 (- (+ (* 2023 12) 1) 24003)))
 (let (($x1145 (= x_months ?x1416)))
 (or (> x_months ?x1416) (and $x1145 (<= 0 x_beta))))))
(assert
 (let ((?x1416 (- (+ (* 2023 12) 1) 24003)))
 (let (($x1145 (= x_months ?x1416)))
 (or (< x_months ?x1416) (and $x1145 (>= 30 x_beta))))))
(assert
 (let ((?x1316 (+ x_beta 1)))
 (let ((?x1059 (+ (+ x_months 0) 24003)))
 (let ((?x767 (- ?x1059 (* (div (- ?x1059 1) 12) 12))))
 (let ((?x786 (ite (or (= ?x767 4) (= ?x767 6) (= ?x767 9) (= ?x767 11)) 30 31)))
 (let (($x446 (and (= (mod (div (- ?x1059 1) 12) 4) 0) (and (distinct (mod (div (- ?x1059 1) 12) 100) 0) true))))
 (let (($x801 (or $x446 (= (mod (div (- ?x1059 1) 12) 400) 0))))
 (let ((?x1089 (ite (= ?x767 2) (ite $x801 29 28) ?x786)))
 (let (($x1351 (> 1 ?x1316)))
 (let ((?x951 (ite $x1351 1 (ite (> ?x1316 ?x1089) ?x1089 ?x1316))))
 (let ((?x965 (ite (> 1 ?x951) 1 (ite (> ?x951 ?x1089) ?x1089 ?x951))))
 (let ((?x850 (ite (= 2 ?x767) (ite $x801 31 31) (ite (= 1 ?x767) (ite $x801 0 0) 0))))
 (let ((?x946 (ite (= 4 ?x767) (ite $x801 91 90) (ite (= 3 ?x767) (ite $x801 60 59) ?x850))))
 (let ((?x944 (ite (= 6 ?x767) (ite $x801 152 151) (ite (= 5 ?x767) (ite $x801 121 120) ?x946))))
 (let ((?x886 (ite (= 8 ?x767) (ite $x801 213 212) (ite (= 7 ?x767) (ite $x801 182 181) ?x944))))
 (let ((?x934 (ite (= 10 ?x767) (ite $x801 274 273) (ite (= 9 ?x767) (ite $x801 244 243) ?x886))))
 (let ((?x954 (ite (= 12 ?x767) (ite $x801 335 334) (ite (= 11 ?x767) (ite $x801 305 304) ?x934))))
 (let ((?x225 (+ (* 365 (- (div (- ?x1059 1) 12) 1)) (div (- (div (- ?x1059 1) 12) 1) 4))))
 (let ((?x884 (+ (- ?x225 (div (- (div (- ?x1059 1) 12) 1) 100)) (div (- (div (- ?x1059 1) 12) 1) 400))))
 (let ((?x1087 (+ (+ (- (+ (+ ?x884 ?x954) (- ?x965 1)) 730179) 30) 730179)))
 (let ((?x1047 (mod ?x1087 146097)))
 (let ((?x416 (div ?x1047 36524)))
 (let ((?x872 (ite (<= 4 ?x416) 3 ?x416)))
 (let ((?x861 (- ?x1047 (* ?x872 36524))))
 (let ((?x758 (mod ?x861 1461)))
 (let ((?x782 (div ?x758 365)))
 (let ((?x1014 (ite (<= 4 ?x782) 3 ?x782)))
 (let ((?x1076 (+ (+ (* (div ?x1087 146097) 400) (* ?x872 100)) (* (div ?x861 1461) 4))))
 (let ((?x869 (+ (+ ?x1076 ?x1014) 1)))
 (let (($x857 (or (and (= (mod ?x869 4) 0) (and (distinct (mod ?x869 100) 0) true)) (= (mod ?x869 400) 0))))
 (let ((?x1082 (- ?x758 (* ?x1014 365))))
 (let ((?x838 (ite $x857 31 31)))
 (let (($x883 (>= ?x1082 ?x838)))
 (let ((?x529 (ite $x883 (+ (- ?x1082 ?x838) 1) (+ (- ?x1082 (ite $x857 0 0)) 1))))
 (let ((?x1012 (ite $x857 60 59)))
 (let (($x958 (>= ?x1082 ?x1012)))
 (let ((?x990 (ite $x857 91 90)))
 (let (($x828 (>= ?x1082 ?x990)))
 (let ((?x302 (ite $x828 (+ (- ?x1082 ?x990) 1) (ite $x958 (+ (- ?x1082 ?x1012) 1) ?x529))))
 (let ((?x836 (ite $x857 121 120)))
 (let (($x824 (>= ?x1082 ?x836)))
 (let ((?x1090 (ite $x857 152 151)))
 (let (($x822 (>= ?x1082 ?x1090)))
 (let ((?x780 (ite $x822 (+ (- ?x1082 ?x1090) 1) (ite $x824 (+ (- ?x1082 ?x836) 1) ?x302))))
 (let ((?x826 (ite $x857 182 181)))
 (let (($x939 (>= ?x1082 ?x826)))
 (let ((?x806 (ite $x857 213 212)))
 (let (($x855 (>= ?x1082 ?x806)))
 (let ((?x992 (ite $x855 (+ (- ?x1082 ?x806) 1) (ite $x939 (+ (- ?x1082 ?x826) 1) ?x780))))
 (let ((?x298 (ite $x857 244 243)))
 (let (($x923 (>= ?x1082 ?x298)))
 (let ((?x319 (ite $x857 274 273)))
 (let (($x928 (>= ?x1082 ?x319)))
 (let ((?x902 (ite $x928 (+ (- ?x1082 ?x319) 1) (ite $x923 (+ (- ?x1082 ?x298) 1) ?x992))))
 (let ((?x827 (ite $x857 305 304)))
 (let (($x915 (>= ?x1082 ?x827)))
 (let ((?x548 (ite $x857 335 334)))
 (let (($x815 (>= ?x1082 ?x548)))
 (let ((?x445 (ite $x815 (+ (- ?x1082 ?x548) 1) (ite $x915 (+ (- ?x1082 ?x827) 1) ?x902))))
 (let (($x950 (= 30 0)))
 (let ((?x1255 (+ (+ x_months 1) 24003)))
 (let ((?x1354 (- ?x1255 (* (div (- ?x1255 1) 12) 12))))
 (let ((?x1332 (ite (or (= ?x1354 4) (= ?x1354 6) (= ?x1354 9) (= ?x1354 11)) 30 31)))
 (let (($x926 (and (= (mod (div (- ?x1255 1) 12) 4) 0) (and (distinct (mod (div (- ?x1255 1) 12) 100) 0) true))))
 (let (($x1374 (or $x926 (= (mod (div (- ?x1255 1) 12) 400) 0))))
 (let ((?x1312 (ite (= ?x1354 2) (ite $x1374 29 28) ?x1332)))
 (let ((?x1350 (ite $x1351 1 (ite (> ?x1316 ?x1312) ?x1312 ?x1316))))
 (let ((?x1506 (ite (> 1 ?x1350) 1 (ite (> ?x1350 ?x1312) ?x1312 ?x1350))))
 (let ((?x1561 (ite (= 2 ?x1354) (ite $x1374 31 31) (ite (= 1 ?x1354) (ite $x1374 0 0) 0))))
 (let ((?x1382 (ite (= 4 ?x1354) (ite $x1374 91 90) (ite (= 3 ?x1354) (ite $x1374 60 59) ?x1561))))
 (let ((?x1390 (ite (= 6 ?x1354) (ite $x1374 152 151) (ite (= 5 ?x1354) (ite $x1374 121 120) ?x1382))))
 (let ((?x1126 (ite (= 8 ?x1354) (ite $x1374 213 212) (ite (= 7 ?x1354) (ite $x1374 182 181) ?x1390))))
 (let ((?x1462 (ite (= 10 ?x1354) (ite $x1374 274 273) (ite (= 9 ?x1354) (ite $x1374 244 243) ?x1126))))
 (let ((?x1283 (ite (= 12 ?x1354) (ite $x1374 335 334) (ite (= 11 ?x1354) (ite $x1374 305 304) ?x1462))))
 (let ((?x1199 (+ (* 365 (- (div (- ?x1255 1) 12) 1)) (div (- (div (- ?x1255 1) 12) 1) 4))))
 (let ((?x1444 (+ (- ?x1199 (div (- (div (- ?x1255 1) 12) 1) 100)) (div (- (div (- ?x1255 1) 12) 1) 400))))
 (let ((?x1135 (+ (+ (- (+ (+ ?x1444 ?x1283) (- ?x1506 1)) 730179) 0) 730179)))
 (let ((?x1308 (mod ?x1135 146097)))
 (let ((?x1226 (div ?x1308 36524)))
 (let ((?x1130 (ite (<= 4 ?x1226) 3 ?x1226)))
 (let ((?x1431 (- ?x1308 (* ?x1130 36524))))
 (let ((?x1187 (mod ?x1431 1461)))
 (let ((?x1434 (div ?x1187 365)))
 (let ((?x1272 (ite (<= 4 ?x1434) 3 ?x1434)))
 (let ((?x1139 (+ (+ (* (div ?x1135 146097) 400) (* ?x1130 100)) (* (div ?x1431 1461) 4))))
 (let ((?x1330 (+ (+ ?x1139 ?x1272) 1)))
 (let (($x1289 (or (and (= (mod ?x1330 4) 0) (and (distinct (mod ?x1330 100) 0) true)) (= (mod ?x1330 400) 0))))
 (let ((?x1353 (- ?x1187 (* ?x1272 365))))
 (let ((?x1399 (ite $x1289 31 31)))
 (let (($x729 (>= ?x1353 ?x1399)))
 (let ((?x1044 (ite $x729 (+ (- ?x1353 ?x1399) 1) (+ (- ?x1353 (ite $x1289 0 0)) 1))))
 (let ((?x1141 (ite $x1289 60 59)))
 (let (($x231 (>= ?x1353 ?x1141)))
 (let ((?x1233 (ite $x1289 91 90)))
 (let (($x450 (>= ?x1353 ?x1233)))
 (let ((?x1003 (ite $x450 (+ (- ?x1353 ?x1233) 1) (ite $x231 (+ (- ?x1353 ?x1141) 1) ?x1044))))
 (let ((?x1155 (ite $x1289 121 120)))
 (let (($x267 (>= ?x1353 ?x1155)))
 (let ((?x1154 (ite $x1289 152 151)))
 (let (($x1118 (>= ?x1353 ?x1154)))
 (let ((?x1030 (ite $x1118 (+ (- ?x1353 ?x1154) 1) (ite $x267 (+ (- ?x1353 ?x1155) 1) ?x1003))))
 (let ((?x1384 (ite $x1289 182 181)))
 (let (($x1150 (>= ?x1353 ?x1384)))
 (let ((?x1383 (ite $x1289 213 212)))
 (let (($x1344 (>= ?x1353 ?x1383)))
 (let ((?x932 (ite $x1344 (+ (- ?x1353 ?x1383) 1) (ite $x1150 (+ (- ?x1353 ?x1384) 1) ?x1030))))
 (let ((?x1489 (ite $x1289 244 243)))
 (let (($x1043 (>= ?x1353 ?x1489)))
 (let ((?x539 (ite $x1289 274 273)))
 (let (($x547 (>= ?x1353 ?x539)))
 (let ((?x1078 (ite $x547 (+ (- ?x1353 ?x539) 1) (ite $x1043 (+ (- ?x1353 ?x1489) 1) ?x932))))
 (let ((?x1448 (ite $x1289 305 304)))
 (let (($x1449 (>= ?x1353 ?x1448)))
 (let ((?x959 (ite $x1289 335 334)))
 (let (($x759 (>= ?x1353 ?x959)))
 (let ((?x1048 (ite $x759 (+ (- ?x1353 ?x959) 1) (ite $x1449 (+ (- ?x1353 ?x1448) 1) ?x1078))))
 (let (($x956 (= 0 0)))
 (let ((?x821 (ite $x824 5 (ite $x828 4 (ite $x958 3 (ite $x883 2 1))))))
 (let ((?x242 (ite $x923 9 (ite $x855 8 (ite $x939 7 (ite $x822 6 ?x821))))))
 (let ((?x809 (ite $x815 12 (ite $x915 11 (ite $x928 10 ?x242)))))
 (let ((?x900 (+ (* (ite $x950 (div (- ?x1059 1) 12) ?x869) 12) (ite $x950 ?x767 ?x809))))
 (let ((?x440 (ite $x267 5 (ite $x450 4 (ite $x231 3 (ite $x729 2 1))))))
 (let ((?x439 (ite $x1043 9 (ite $x1344 8 (ite $x1150 7 (ite $x1118 6 ?x440))))))
 (let ((?x1023 (+ (* (ite $x956 (div (- ?x1255 1) 12) ?x1330) 12) (ite $x956 ?x1354 (ite $x759 12 (ite $x1449 11 (ite $x547 10 ?x439)))))))
 (let (($x218 (and (= (- ?x1023 24003) (- ?x900 24003)) (= (- (ite $x956 ?x1506 ?x1048) 1) (- (ite $x950 ?x965 ?x445) 1)))))
 (not $x218))))))))))))))))))))))))))))))))))))))))))))))))))))))))))))))))))))))))))))))))))))))))))))))))))))))))))))))))))))))))))))))
(assert
 (let ((?x1416 (- (+ (* 2023 12) 1) 24003)))
(let (($x1145 (= x_months ?x1416)))
(and $x1145 (= 29 x_beta)))))
(check-sat)
